include "in.settings"

fix conq bot electrode/conq -1.0 1.979 couple top 1.0 etypes 6*7

# link potential variable to fix conq
variable vbot internal 0.0
variable vtop internal 0.0
fix_modify conq set v bot vbot
fix_modify conq set v top vtop

thermo_style custom step temp c_ctemp epair etotal c_qbot c_qtop v_vbot v_vtop
run 500
