include "in.settings"

variable v equal ramp(2,4)
fix conp bot electrode/conp 0.0 1.979 couple top v_v symm on etypes 6*7
thermo_style custom step temp c_ctemp epair etotal c_qbot c_qtop v_v
run 500
