include "in.settings"

fix conpthermo bot electrode/thermo -1.0 1.805132 couple top 1.0 etypes 6*7 temp 298 100
thermo_style custom step temp c_ctemp epair etotal c_qbot c_qtop
run 500
